100
30
1
31
16
24
22
2
12
3
3
32
24
31
9
32
26
21
2
4
11
7
12
32
26
4
3
9
32
24
18
6
18
11
4
23
31
15
31
29
15
1
3
31
1
2
31
32
8
31
20
17
1
31
9
20
1
21
2
32
2
18
18
3
31
4
9
16
4
5
2
32
32
21
5
5
20
19
31
9
4
17
3
6
8
7
32
22
8
19
11
6
6
31
24
6
4
30
32
4
23
3